\Problem name: 

Minimize
OBJROW: 120 x_0 + 120 x_1 + 120 x_2 + 120 x_3 + 320 x_4 + 320 x_5 + 320 x_6
Subject To
constr(0):  x_0 + x_4 >= 4
constr(1):  x_1 + x_4 + x_5 >= 8
constr(2):  x_2 + x_5 + x_6 >= 10
constr(3):  x_3 + x_6 >= 6
constr(4):  2 x_0 - x_4 <= -0
constr(5):  2 x_1 - x_4 - x_5 <= -0
constr(6):  2 x_2 - x_5 - x_6 <= -0
constr(7):  2 x_3 - x_6 <= -0
Bounds
End
